\* Problem A *\
Minimize
OBJ: shipQ_Atlanta_Atlanta + 13 shipQ_Atlanta_Buffalo
 + 16 shipQ_Atlanta_Chicago + 11 shipQ_Atlanta_Cincinnati
 + 15 shipQ_Atlanta_Detroit + 11 shipQ_Atlanta_Pittsburgh
 + 8 shipQ_Atlanta_Richmond + 12 shipQ_Atlanta_St._Louis
 + 4 shipQ_Birmingham_Atlanta + 15 shipQ_Birmingham_Buffalo
 + 15 shipQ_Birmingham_Chicago + 12 shipQ_Birmingham_Cincinnati
 + 16 shipQ_Birmingham_Detroit + 13 shipQ_Birmingham_Pittsburgh
 + 11 shipQ_Birmingham_Richmond + 10 shipQ_Birmingham_St._Louis
 + 13 shipQ_Buffalo_Atlanta + shipQ_Buffalo_Buffalo + 10 shipQ_Buffalo_Chicago
 + 8 shipQ_Buffalo_Cincinnati + 4 shipQ_Buffalo_Detroit
 + 4 shipQ_Buffalo_Pittsburgh + 7 shipQ_Buffalo_Richmond
 + 13 shipQ_Buffalo_St._Louis + 4 shipQ_Charlotte_Atlanta
 + 10 shipQ_Charlotte_Buffalo + 15 shipQ_Charlotte_Chicago
 + 10 shipQ_Charlotte_Cincinnati + 13 shipQ_Charlotte_Detroit
 + 8 shipQ_Charlotte_Pittsburgh + 4 shipQ_Charlotte_Richmond
 + 14 shipQ_Charlotte_St._Louis + 7 shipQ_Charteston_Atlanta
 + 6 shipQ_Charteston_Buffalo + 11 shipQ_Charteston_Chicago
 + 6 shipQ_Charteston_Cincinnati + 8 shipQ_Charteston_Detroit
 + 6 shipQ_Charteston_Pittsburgh + 4 shipQ_Charteston_Richmond
 + 10 shipQ_Charteston_St._Louis + 2 shipQ_Chattanooga_Atlanta
 + 11 shipQ_Chattanooga_Buffalo + 14 shipQ_Chattanooga_Chicago
 + 9 shipQ_Chattanooga_Cincinnati + 13 shipQ_Chattanooga_Detroit
 + 9 shipQ_Chattanooga_Pittsburgh + 7 shipQ_Chattanooga_Richmond
 + 11 shipQ_Chattanooga_St._Louis + 16 shipQ_Chicago_Atlanta
 + 10 shipQ_Chicago_Buffalo + shipQ_Chicago_Chicago
 + 9 shipQ_Chicago_Cincinnati + 6 shipQ_Chicago_Detroit
 + 9 shipQ_Chicago_Pittsburgh + 14 shipQ_Chicago_Richmond
 + 7 shipQ_Chicago_St._Louis + 9 shipQ_Cincinnati_Atlanta
 + 6 shipQ_Cincinnati_Buffalo + 7 shipQ_Cincinnati_Chicago
 + 3 shipQ_Cincinnati_Cincinnati + 6 shipQ_Cincinnati_Detroit
 + 6 shipQ_Cincinnati_Pittsburgh + 7 shipQ_Cincinnati_Richmond
 + 7 shipQ_Cincinnati_St._Louis + 13 shipQ_Cleveland_Atlanta
 + 3 shipQ_Cleveland_Buffalo + 7 shipQ_Cleveland_Chicago
 + 6 shipQ_Cleveland_Cincinnati + 3 shipQ_Cleveland_Detroit
 + 5 shipQ_Cleveland_Pittsburgh + 8 shipQ_Cleveland_Richmond
 + 10 shipQ_Cleveland_St._Louis + 10 shipQ_Columbus_Atlanta
 + 4 shipQ_Columbus_Buffalo + 8 shipQ_Columbus_Chicago
 + 4 shipQ_Columbus_Cincinnati + 5 shipQ_Columbus_Detroit
 + 4 shipQ_Columbus_Pittsburgh + 7 shipQ_Columbus_Richmond
 + 9 shipQ_Columbus_St._Louis + 15 shipQ_Detroit_Atlanta
 + 4 shipQ_Detroit_Buffalo + 6 shipQ_Detroit_Chicago
 + 8 shipQ_Detroit_Cincinnati + shipQ_Detroit_Detroit
 + 7 shipQ_Detroit_Pittsburgh + 11 shipQ_Detroit_Richmond
 + 11 shipQ_Detroit_St._Louis + 9 shipQ_Evansville_Atlanta
 + 10 shipQ_Evansville_Buffalo + 7 shipQ_Evansville_Chicago
 + 6 shipQ_Evansville_Cincinnati + 9 shipQ_Evansville_Detroit
 + 8 shipQ_Evansville_Pittsburgh + 10 shipQ_Evansville_Richmond
 + 4 shipQ_Evansville_St._Louis + 14 shipQ_Ft_Wayne_Atlanta
 + 8 shipQ_Ft_Wayne_Buffalo + 2 shipQ_Ft_Wayne_Chicago
 + 7 shipQ_Ft_Wayne_Cincinnati + 4 shipQ_Ft_Wayne_Detroit
 + 9 shipQ_Ft_Wayne_Pittsburgh + 12 shipQ_Ft_Wayne_Richmond
 + 6 shipQ_Ft_Wayne_St._Louis + 12 shipQ_Indianapolis_Atlanta
 + 9 shipQ_Indianapolis_Buffalo + 4 shipQ_Indianapolis_Chicago
 + 6 shipQ_Indianapolis_Cincinnati + 7 shipQ_Indianapolis_Detroit
 + 8 shipQ_Indianapolis_Pittsburgh + 11 shipQ_Indianapolis_Richmond
 + 4 shipQ_Indianapolis_St._Louis + 4 shipQ_Knoxville_Atlanta
 + 9 shipQ_Knoxville_Buffalo + 12 shipQ_Knoxville_Chicago
 + 7 shipQ_Knoxville_Cincinnati + 11 shipQ_Knoxville_Detroit
 + 9 shipQ_Knoxville_Pittsburgh + 6 shipQ_Knoxville_Richmond
 + 9 shipQ_Knoxville_St._Louis + 8 shipQ_Louisville_Atlanta
 + 8 shipQ_Louisville_Buffalo + 8 shipQ_Louisville_Chicago
 + 4 shipQ_Louisville_Cincinnati + 8 shipQ_Louisville_Detroit
 + 8 shipQ_Louisville_Pittsburgh + 8 shipQ_Louisville_Richmond
 + 6 shipQ_Louisville_St._Louis + 8 shipQ_Memphis_Atlanta
 + 14 shipQ_Memphis_Buffalo + 12 shipQ_Memphis_Chicago
 + 10 shipQ_Memphis_Cincinnati + 14 shipQ_Memphis_Detroit
 + 12 shipQ_Memphis_Pittsburgh + 12 shipQ_Memphis_Richmond
 + 6 shipQ_Memphis_St._Louis + 6 shipQ_Nashville_Atlanta
 + 12 shipQ_Nashville_Buffalo + 11 shipQ_Nashville_Chicago
 + 8 shipQ_Nashville_Cincinnati + 12 shipQ_Nashville_Detroit
 + 10 shipQ_Nashville_Pittsburgh + 9 shipQ_Nashville_Richmond
 + 7 shipQ_Nashville_St._Louis + 16 shipQ_Peoria_Atlanta
 + 11 shipQ_Peoria_Buffalo + 2 shipQ_Peoria_Chicago
 + 10 shipQ_Peoria_Cincinnati + 8 shipQ_Peoria_Detroit
 + 11 shipQ_Peoria_Pittsburgh + 15 shipQ_Peoria_Richmond
 + 5 shipQ_Peoria_St._Louis + 11 shipQ_Pittsburgh_Atlanta
 + 2 shipQ_Pittsburgh_Buffalo + 9 shipQ_Pittsburgh_Chicago
 + 6 shipQ_Pittsburgh_Cincinnati + 5 shipQ_Pittsburgh_Detroit
 + 3 shipQ_Pittsburgh_Pittsburgh + 5 shipQ_Pittsburgh_Richmond
 + 11 shipQ_Pittsburgh_St._Louis + 8 shipQ_Richmond_Atlanta
 + 7 shipQ_Richmond_Buffalo + 14 shipQ_Richmond_Chicago
 + 9 shipQ_Richmond_Cincinnati + 11 shipQ_Richmond_Detroit
 + 7 shipQ_Richmond_Pittsburgh + shipQ_Richmond_Richmond
 + 14 shipQ_Richmond_St._Louis + 12 shipQ_St._Louis_Atlanta
 + 13 shipQ_St._Louis_Buffalo + 7 shipQ_St._Louis_Chicago
 + 9 shipQ_St._Louis_Cincinnati + 11 shipQ_St._Louis_Detroit
 + 11 shipQ_St._Louis_Pittsburgh + 14 shipQ_St._Louis_Richmond
 + shipQ_St._Louis_St._Louis + 6 storage_above_min_Atlanta
 + 8 storage_above_min_Buffalo + 9 storage_above_min_Chicago
 + 7 storage_above_min_Cincinnati + 8 storage_above_min_Detroit
 + 8 storage_above_min_Pittsburgh + 6 storage_above_min_Richmond
 + 5 storage_above_min_St._Louis + 2700 storage_decision_Atlanta
 + 2900 storage_decision_Buffalo + 3500 storage_decision_Chicago
 + 2200 storage_decision_Cincinnati + 3300 storage_decision_Detroit
 + 3000 storage_decision_Pittsburgh + 2000 storage_decision_Richmond
 + 1800 storage_decision_St._Louis
Subject To
_C1: shipQ_Atlanta_Atlanta + shipQ_Atlanta_Buffalo + shipQ_Atlanta_Chicago
 + shipQ_Atlanta_Cincinnati + shipQ_Atlanta_Detroit + shipQ_Atlanta_Pittsburgh
 + shipQ_Atlanta_Richmond + shipQ_Atlanta_St._Louis = 275
_C10: shipQ_Columbus_Atlanta + shipQ_Columbus_Buffalo + shipQ_Columbus_Chicago
 + shipQ_Columbus_Cincinnati + shipQ_Columbus_Detroit
 + shipQ_Columbus_Pittsburgh + shipQ_Columbus_Richmond
 + shipQ_Columbus_St._Louis = 220
_C11: shipQ_Detroit_Atlanta + shipQ_Detroit_Buffalo + shipQ_Detroit_Chicago
 + shipQ_Detroit_Cincinnati + shipQ_Detroit_Detroit + shipQ_Detroit_Pittsburgh
 + shipQ_Detroit_Richmond + shipQ_Detroit_St._Louis = 190
_C12: shipQ_Evansville_Atlanta + shipQ_Evansville_Buffalo
 + shipQ_Evansville_Chicago + shipQ_Evansville_Cincinnati
 + shipQ_Evansville_Detroit + shipQ_Evansville_Pittsburgh
 + shipQ_Evansville_Richmond + shipQ_Evansville_St._Louis = 100
_C13: shipQ_Ft_Wayne_Atlanta + shipQ_Ft_Wayne_Buffalo + shipQ_Ft_Wayne_Chicago
 + shipQ_Ft_Wayne_Cincinnati + shipQ_Ft_Wayne_Detroit
 + shipQ_Ft_Wayne_Pittsburgh + shipQ_Ft_Wayne_Richmond
 + shipQ_Ft_Wayne_St._Louis = 140
_C14: shipQ_Indianapolis_Atlanta + shipQ_Indianapolis_Buffalo
 + shipQ_Indianapolis_Chicago + shipQ_Indianapolis_Cincinnati
 + shipQ_Indianapolis_Detroit + shipQ_Indianapolis_Pittsburgh
 + shipQ_Indianapolis_Richmond + shipQ_Indianapolis_St._Louis = 310
_C15: shipQ_Knoxville_Atlanta + shipQ_Knoxville_Buffalo
 + shipQ_Knoxville_Chicago + shipQ_Knoxville_Cincinnati
 + shipQ_Knoxville_Detroit + shipQ_Knoxville_Pittsburgh
 + shipQ_Knoxville_Richmond + shipQ_Knoxville_St._Louis = 125
_C16: shipQ_Louisville_Atlanta + shipQ_Louisville_Buffalo
 + shipQ_Louisville_Chicago + shipQ_Louisville_Cincinnati
 + shipQ_Louisville_Detroit + shipQ_Louisville_Pittsburgh
 + shipQ_Louisville_Richmond + shipQ_Louisville_St._Louis = 340
_C17: shipQ_Memphis_Atlanta + shipQ_Memphis_Buffalo + shipQ_Memphis_Chicago
 + shipQ_Memphis_Cincinnati + shipQ_Memphis_Detroit + shipQ_Memphis_Pittsburgh
 + shipQ_Memphis_Richmond + shipQ_Memphis_St._Louis = 240
_C18: shipQ_Nashville_Atlanta + shipQ_Nashville_Buffalo
 + shipQ_Nashville_Chicago + shipQ_Nashville_Cincinnati
 + shipQ_Nashville_Detroit + shipQ_Nashville_Pittsburgh
 + shipQ_Nashville_Richmond + shipQ_Nashville_St._Louis = 210
_C19: shipQ_Peoria_Atlanta + shipQ_Peoria_Buffalo + shipQ_Peoria_Chicago
 + shipQ_Peoria_Cincinnati + shipQ_Peoria_Detroit + shipQ_Peoria_Pittsburgh
 + shipQ_Peoria_Richmond + shipQ_Peoria_St._Louis = 150
_C2: shipQ_Birmingham_Atlanta + shipQ_Birmingham_Buffalo
 + shipQ_Birmingham_Chicago + shipQ_Birmingham_Cincinnati
 + shipQ_Birmingham_Detroit + shipQ_Birmingham_Pittsburgh
 + shipQ_Birmingham_Richmond + shipQ_Birmingham_St._Louis = 160
_C20: shipQ_Pittsburgh_Atlanta + shipQ_Pittsburgh_Buffalo
 + shipQ_Pittsburgh_Chicago + shipQ_Pittsburgh_Cincinnati
 + shipQ_Pittsburgh_Detroit + shipQ_Pittsburgh_Pittsburgh
 + shipQ_Pittsburgh_Richmond + shipQ_Pittsburgh_St._Louis = 340
_C21: shipQ_Richmond_Atlanta + shipQ_Richmond_Buffalo + shipQ_Richmond_Chicago
 + shipQ_Richmond_Cincinnati + shipQ_Richmond_Detroit
 + shipQ_Richmond_Pittsburgh + shipQ_Richmond_Richmond
 + shipQ_Richmond_St._Louis = 300
_C22: shipQ_St._Louis_Atlanta + shipQ_St._Louis_Buffalo
 + shipQ_St._Louis_Chicago + shipQ_St._Louis_Cincinnati
 + shipQ_St._Louis_Detroit + shipQ_St._Louis_Pittsburgh
 + shipQ_St._Louis_Richmond + shipQ_St._Louis_St._Louis = 260
_C23: storage_above_min_Atlanta + storage_below_min_Atlanta
 - 1750 storage_decision_Atlanta <= 0
_C24: storage_below_min_Atlanta - 200 storage_decision_Atlanta <= 0
_C25: - shipQ_Atlanta_Atlanta - shipQ_Birmingham_Atlanta
 - shipQ_Buffalo_Atlanta - shipQ_Charlotte_Atlanta - shipQ_Charteston_Atlanta
 - shipQ_Chattanooga_Atlanta - shipQ_Chicago_Atlanta
 - shipQ_Cincinnati_Atlanta - shipQ_Cleveland_Atlanta - shipQ_Columbus_Atlanta
 - shipQ_Detroit_Atlanta - shipQ_Evansville_Atlanta - shipQ_Ft_Wayne_Atlanta
 - shipQ_Indianapolis_Atlanta - shipQ_Knoxville_Atlanta
 - shipQ_Louisville_Atlanta - shipQ_Memphis_Atlanta - shipQ_Nashville_Atlanta
 - shipQ_Peoria_Atlanta - shipQ_Pittsburgh_Atlanta - shipQ_Richmond_Atlanta
 - shipQ_St._Louis_Atlanta + storage_above_min_Atlanta
 + storage_below_min_Atlanta = 0
_C26: storage_above_min_Buffalo + storage_below_min_Buffalo
 - 1250 storage_decision_Buffalo <= 0
_C27: storage_below_min_Buffalo - 150 storage_decision_Buffalo <= 0
_C28: - shipQ_Atlanta_Buffalo - shipQ_Birmingham_Buffalo
 - shipQ_Buffalo_Buffalo - shipQ_Charlotte_Buffalo - shipQ_Charteston_Buffalo
 - shipQ_Chattanooga_Buffalo - shipQ_Chicago_Buffalo
 - shipQ_Cincinnati_Buffalo - shipQ_Cleveland_Buffalo - shipQ_Columbus_Buffalo
 - shipQ_Detroit_Buffalo - shipQ_Evansville_Buffalo - shipQ_Ft_Wayne_Buffalo
 - shipQ_Indianapolis_Buffalo - shipQ_Knoxville_Buffalo
 - shipQ_Louisville_Buffalo - shipQ_Memphis_Buffalo - shipQ_Nashville_Buffalo
 - shipQ_Peoria_Buffalo - shipQ_Pittsburgh_Buffalo - shipQ_Richmond_Buffalo
 - shipQ_St._Louis_Buffalo + storage_above_min_Buffalo
 + storage_below_min_Buffalo = 0
_C29: storage_above_min_Chicago + storage_below_min_Chicago
 - 2000 storage_decision_Chicago <= 0
_C3: shipQ_Buffalo_Atlanta + shipQ_Buffalo_Buffalo + shipQ_Buffalo_Chicago
 + shipQ_Buffalo_Cincinnati + shipQ_Buffalo_Detroit + shipQ_Buffalo_Pittsburgh
 + shipQ_Buffalo_Richmond + shipQ_Buffalo_St._Louis = 240
_C30: storage_below_min_Chicago - 250 storage_decision_Chicago <= 0
_C31: - shipQ_Atlanta_Chicago - shipQ_Birmingham_Chicago
 - shipQ_Buffalo_Chicago - shipQ_Charlotte_Chicago - shipQ_Charteston_Chicago
 - shipQ_Chattanooga_Chicago - shipQ_Chicago_Chicago
 - shipQ_Cincinnati_Chicago - shipQ_Cleveland_Chicago - shipQ_Columbus_Chicago
 - shipQ_Detroit_Chicago - shipQ_Evansville_Chicago - shipQ_Ft_Wayne_Chicago
 - shipQ_Indianapolis_Chicago - shipQ_Knoxville_Chicago
 - shipQ_Louisville_Chicago - shipQ_Memphis_Chicago - shipQ_Nashville_Chicago
 - shipQ_Peoria_Chicago - shipQ_Pittsburgh_Chicago - shipQ_Richmond_Chicago
 - shipQ_St._Louis_Chicago + storage_above_min_Chicago
 + storage_below_min_Chicago = 0
_C32: storage_above_min_Cincinnati + storage_below_min_Cincinnati
 - 1500 storage_decision_Cincinnati <= 0
_C33: storage_below_min_Cincinnati - 200 storage_decision_Cincinnati <= 0
_C34: - shipQ_Atlanta_Cincinnati - shipQ_Birmingham_Cincinnati
 - shipQ_Buffalo_Cincinnati - shipQ_Charlotte_Cincinnati
 - shipQ_Charteston_Cincinnati - shipQ_Chattanooga_Cincinnati
 - shipQ_Chicago_Cincinnati - shipQ_Cincinnati_Cincinnati
 - shipQ_Cleveland_Cincinnati - shipQ_Columbus_Cincinnati
 - shipQ_Detroit_Cincinnati - shipQ_Evansville_Cincinnati
 - shipQ_Ft_Wayne_Cincinnati - shipQ_Indianapolis_Cincinnati
 - shipQ_Knoxville_Cincinnati - shipQ_Louisville_Cincinnati
 - shipQ_Memphis_Cincinnati - shipQ_Nashville_Cincinnati
 - shipQ_Peoria_Cincinnati - shipQ_Pittsburgh_Cincinnati
 - shipQ_Richmond_Cincinnati - shipQ_St._Louis_Cincinnati
 + storage_above_min_Cincinnati + storage_below_min_Cincinnati = 0
_C35: storage_above_min_Detroit + storage_below_min_Detroit
 - 1750 storage_decision_Detroit <= 0
_C36: storage_below_min_Detroit - 200 storage_decision_Detroit <= 0
_C37: - shipQ_Atlanta_Detroit - shipQ_Birmingham_Detroit
 - shipQ_Buffalo_Detroit - shipQ_Charlotte_Detroit - shipQ_Charteston_Detroit
 - shipQ_Chattanooga_Detroit - shipQ_Chicago_Detroit
 - shipQ_Cincinnati_Detroit - shipQ_Cleveland_Detroit - shipQ_Columbus_Detroit
 - shipQ_Detroit_Detroit - shipQ_Evansville_Detroit - shipQ_Ft_Wayne_Detroit
 - shipQ_Indianapolis_Detroit - shipQ_Knoxville_Detroit
 - shipQ_Louisville_Detroit - shipQ_Memphis_Detroit - shipQ_Nashville_Detroit
 - shipQ_Peoria_Detroit - shipQ_Pittsburgh_Detroit - shipQ_Richmond_Detroit
 - shipQ_St._Louis_Detroit + storage_above_min_Detroit
 + storage_below_min_Detroit = 0
_C38: storage_above_min_Pittsburgh + storage_below_min_Pittsburgh
 - 1500 storage_decision_Pittsburgh <= 0
_C39: storage_below_min_Pittsburgh - 200 storage_decision_Pittsburgh <= 0
_C4: shipQ_Charteston_Atlanta + shipQ_Charteston_Buffalo
 + shipQ_Charteston_Chicago + shipQ_Charteston_Cincinnati
 + shipQ_Charteston_Detroit + shipQ_Charteston_Pittsburgh
 + shipQ_Charteston_Richmond + shipQ_Charteston_St._Louis = 260
_C40: - shipQ_Atlanta_Pittsburgh - shipQ_Birmingham_Pittsburgh
 - shipQ_Buffalo_Pittsburgh - shipQ_Charlotte_Pittsburgh
 - shipQ_Charteston_Pittsburgh - shipQ_Chattanooga_Pittsburgh
 - shipQ_Chicago_Pittsburgh - shipQ_Cincinnati_Pittsburgh
 - shipQ_Cleveland_Pittsburgh - shipQ_Columbus_Pittsburgh
 - shipQ_Detroit_Pittsburgh - shipQ_Evansville_Pittsburgh
 - shipQ_Ft_Wayne_Pittsburgh - shipQ_Indianapolis_Pittsburgh
 - shipQ_Knoxville_Pittsburgh - shipQ_Louisville_Pittsburgh
 - shipQ_Memphis_Pittsburgh - shipQ_Nashville_Pittsburgh
 - shipQ_Peoria_Pittsburgh - shipQ_Pittsburgh_Pittsburgh
 - shipQ_Richmond_Pittsburgh - shipQ_St._Louis_Pittsburgh
 + storage_above_min_Pittsburgh + storage_below_min_Pittsburgh = 0
_C41: storage_above_min_Richmond + storage_below_min_Richmond
 - 1000 storage_decision_Richmond <= 0
_C42: storage_below_min_Richmond - 150 storage_decision_Richmond <= 0
_C43: - shipQ_Atlanta_Richmond - shipQ_Birmingham_Richmond
 - shipQ_Buffalo_Richmond - shipQ_Charlotte_Richmond
 - shipQ_Charteston_Richmond - shipQ_Chattanooga_Richmond
 - shipQ_Chicago_Richmond - shipQ_Cincinnati_Richmond
 - shipQ_Cleveland_Richmond - shipQ_Columbus_Richmond - shipQ_Detroit_Richmond
 - shipQ_Evansville_Richmond - shipQ_Ft_Wayne_Richmond
 - shipQ_Indianapolis_Richmond - shipQ_Knoxville_Richmond
 - shipQ_Louisville_Richmond - shipQ_Memphis_Richmond
 - shipQ_Nashville_Richmond - shipQ_Peoria_Richmond
 - shipQ_Pittsburgh_Richmond - shipQ_Richmond_Richmond
 - shipQ_St._Louis_Richmond + storage_above_min_Richmond
 + storage_below_min_Richmond = 0
_C44: storage_above_min_St._Louis + storage_below_min_St._Louis
 - 1500 storage_decision_St._Louis <= 0
_C45: storage_below_min_St._Louis - 200 storage_decision_St._Louis <= 0
_C46: - shipQ_Atlanta_St._Louis - shipQ_Birmingham_St._Louis
 - shipQ_Buffalo_St._Louis - shipQ_Charlotte_St._Louis
 - shipQ_Charteston_St._Louis - shipQ_Chattanooga_St._Louis
 - shipQ_Chicago_St._Louis - shipQ_Cincinnati_St._Louis
 - shipQ_Cleveland_St._Louis - shipQ_Columbus_St._Louis
 - shipQ_Detroit_St._Louis - shipQ_Evansville_St._Louis
 - shipQ_Ft_Wayne_St._Louis - shipQ_Indianapolis_St._Louis
 - shipQ_Knoxville_St._Louis - shipQ_Louisville_St._Louis
 - shipQ_Memphis_St._Louis - shipQ_Nashville_St._Louis
 - shipQ_Peoria_St._Louis - shipQ_Pittsburgh_St._Louis
 - shipQ_Richmond_St._Louis - shipQ_St._Louis_St._Louis
 + storage_above_min_St._Louis + storage_below_min_St._Louis = 0
_C5: shipQ_Charlotte_Atlanta + shipQ_Charlotte_Buffalo
 + shipQ_Charlotte_Chicago + shipQ_Charlotte_Cincinnati
 + shipQ_Charlotte_Detroit + shipQ_Charlotte_Pittsburgh
 + shipQ_Charlotte_Richmond + shipQ_Charlotte_St._Louis = 135
_C6: shipQ_Chattanooga_Atlanta + shipQ_Chattanooga_Buffalo
 + shipQ_Chattanooga_Chicago + shipQ_Chattanooga_Cincinnati
 + shipQ_Chattanooga_Detroit + shipQ_Chattanooga_Pittsburgh
 + shipQ_Chattanooga_Richmond + shipQ_Chattanooga_St._Louis = 160
_C7: shipQ_Chicago_Atlanta + shipQ_Chicago_Buffalo + shipQ_Chicago_Chicago
 + shipQ_Chicago_Cincinnati + shipQ_Chicago_Detroit + shipQ_Chicago_Pittsburgh
 + shipQ_Chicago_Richmond + shipQ_Chicago_St._Louis = 400
_C8: shipQ_Cincinnati_Atlanta + shipQ_Cincinnati_Buffalo
 + shipQ_Cincinnati_Chicago + shipQ_Cincinnati_Cincinnati
 + shipQ_Cincinnati_Detroit + shipQ_Cincinnati_Pittsburgh
 + shipQ_Cincinnati_Richmond + shipQ_Cincinnati_St._Louis = 200
_C9: shipQ_Cleveland_Atlanta + shipQ_Cleveland_Buffalo
 + shipQ_Cleveland_Chicago + shipQ_Cleveland_Cincinnati
 + shipQ_Cleveland_Detroit + shipQ_Cleveland_Pittsburgh
 + shipQ_Cleveland_Richmond + shipQ_Cleveland_St._Louis = 320
Binaries
storage_decision_Atlanta
storage_decision_Buffalo
storage_decision_Chicago
storage_decision_Cincinnati
storage_decision_Detroit
storage_decision_Pittsburgh
storage_decision_Richmond
storage_decision_St._Louis
End
